Set parameter TokenServer to value "hpc-licenses.hpcc.usc.edu"
Set parameter TimeLimit to value 3600
Gurobi Optimizer version 9.5.1 build v9.5.1rc2 (linux64)
Thread count: 20 physical cores, 20 logical processors, using up to 20 threads
Optimize a model with 6007 rows, 4529 columns and 24534 nonzeros
Model fingerprint: 0x421a86b5
Variable types: 4506 continuous, 23 integer (23 binary)
Coefficient statistics:
  Matrix range     [1e+00, 1e+00]
  Objective range  [4e-03, 1e+00]
  Bounds range     [1e+00, 1e+00]
  RHS range        [1e+00, 5e+01]
Presolve removed 1514 rows and 1511 columns
Presolve time: 0.08s
Presolved: 4493 rows, 3018 columns, 21993 nonzeros
Variable types: 2998 continuous, 20 integer (20 binary)
Found heuristic solution: objective 296.6969931

Root relaxation: objective 2.996306e+02, 2024 iterations, 0.12 seconds (0.11 work units)

    Nodes    |    Current Node    |     Objective Bounds      |     Work
 Expl Unexpl |  Obj  Depth IntInf | Incumbent    BestBd   Gap | It/Node Time

     0     0  299.63062    0    3  296.69699  299.63062  0.99%     -    0s
     0     0  299.51192    0    4  296.69699  299.51192  0.95%     -    0s
     0     0  299.43442    0    4  296.69699  299.43442  0.92%     -    0s
H    0     0                     299.3148804  299.40282  0.03%     -    0s
     0     0  299.31488    0    4  299.31488  299.31488  0.00%     -    0s

Cutting planes:
  Gomory: 3
  MIR: 139
  RLT: 17

Explored 1 nodes (2604 simplex iterations) in 0.67 seconds (0.40 work units)
Thread count was 20 (of 20 available processors)

Solution count 2: 299.315 296.697 

Optimal solution found (tolerance 1.00e-04)
Best objective 2.993148804486e+02, best bound 2.993148804486e+02, gap 0.0000%



#########node  1
V1.9
#########node  2
0.09090909090909116,0.9090909090909088
#########node  3
0.9999999999999998,0.0


Total Solving Time 1.079946517944336
obj value 299.3148804486323
Policy Regret train (Sum) 1.2671902492705043
Best Treatment Found train (%) 86.2
treatment classification acc train (%) 39.2
Policy Regret test (Sum) 171.4960881571544
Best Treatment Found test (%) 52.800000000000004
treatment classification acc test (%) 45.26
